p cnf 31 81
a 17 2 0
e 1 3 4 5 6 7 8 9 10 11 12 13 14 15 16 18 19 20 21 22 23 24 25 26 27 28 29 30 31 0
-4 -2 0
-4 -3 0
2 3 4 0
1 4 -5 0
-1 -4 -5 0
1 -4 5 0
-1 4 5 0
7 1 0
7 -6 0
-1 6 -7 0
8 -7 0
8 4 0
7 -4 -8 0
11 -7 0
11 -10 0
7 10 -11 0
-11 1 -12 0
11 -1 -12 0
-11 -1 12 0
11 1 12 0
9 12 -13 0
-9 -12 -13 0
9 -12 13 0
-9 12 13 0
-14 8 0
-14 -13 0
-8 13 14 0
-15 -5 0
-15 -14 0
5 14 15 0
12 16 0
-12 16 0
-17 15 0
-17 16 0
-15 -16 17 0
10 18 -19 0
-10 -18 -19 0
10 -18 19 0
-10 18 19 0
20 -7 0
20 19 0
7 -19 -20 0
21 3 0
21 10 0
-3 -10 -21 0
22 20 0
22 21 0
-20 -21 -22 0
24 23 0
24 11 0
-23 -11 -24 0
25 -11 0
25 -6 0
11 6 -25 0
26 24 0
26 25 0
-24 -25 -26 0
-27 10 0
-27 -26 0
-10 26 27 0
-28 -10 0
-28 19 0
10 -19 28 0
-29 -27 0
-29 -28 0
27 28 29 0
30 22 0
30 -29 0
-22 29 -30 0
-17 -30 -31 0
17 30 -31 0
-17 30 31 0
17 -30 31 0
-19 12 -5 -9 -28 -3 31 8 0
-12 6 9 11 7 0
-15 23 -11 0
22 31 -27 6 25 20 0
-27 -1 -5 -15 0
-18 -21 -23 0
29 5 11 0
31 0
